p cnf 133 128
-1 2 3 4 30 31 33 37 78 84 106 117 -118 -119 -120 -121 -122 -125 -126 0 
-2 1 3 4 30 31 33 37 78 84 106 118 -117 -119 -120 -121 -122 -125 -126 0 
-3 1 2 4 30 31 33 37 78 84 106 117 -118 -119 -120 -121 -122 -125 -126 0 
-4 1 2 3 30 31 33 37 78 84 106 117 -118 -119 -120 -121 -122 -125 -126 0 
-5 36 71 119 -117 -118 -120 -121 -122 -125 -126 0 
-6 34 40 49 59 68 70 101 107 118 -117 -119 -120 -121 -122 -125 -126 0 
-7 55 64 73 87 88 -8 23 41 80 -9 119 -117 -118 -120 -121 -122 -125 -126 0 
-10 14 24 26 39 42 43 45 56 83 86 89 93 -8 23 41 80 -9 119 -117 -118 -120 -121 -122 -125 -126 0 
-11 13 17 66 104 -12 119 -117 -118 -120 -121 -122 -125 -126 0 
-12 119 -117 -118 -120 -121 -122 -125 -126 0 
-13 11 17 66 104 119 -117 -118 -120 -121 -122 -125 -126 0 
-14 10 24 26 39 42 43 45 56 83 86 89 93 119 -117 -118 -120 -121 -122 -125 -126 0 
-15 53 119 -117 -118 -120 -121 -122 -125 -126 0 
-16 46 67 119 -117 -118 -120 -121 -122 -125 -126 0 
-17 11 13 66 104 119 -117 -118 -120 -121 -122 -125 -126 0 
-18 19 63 112 119 -117 -118 -120 -121 -122 -125 -126 0 
-19 18 63 112 119 -117 -118 -120 -121 -122 -125 -126 0 
-20 119 -117 -118 -120 -121 -122 -125 -126 0 
-21 28 119 -117 -118 -120 -121 -122 -125 -126 0 
-22 38 44 81 99 119 -117 -118 -120 -121 -122 -125 -126 0 
-23 8 41 80 119 -117 -118 -120 -121 -122 -125 -126 0 
-24 10 14 26 39 42 43 45 56 83 86 89 93 119 -117 -118 -120 -121 -122 -125 -126 0 
-10 14 24 26 39 42 43 45 56 83 86 89 93 -25 119 -117 -118 -120 -121 -122 -125 -126 0 
-26 10 14 24 39 42 43 45 56 83 86 89 93 119 -117 -118 -120 -121 -122 -125 -126 0 
-27 29 61 62 108 109 119 -117 -118 -120 -121 -122 -125 -126 0 
-28 21 119 -117 -118 -120 -121 -122 -125 -126 0 
-25 119 -117 -118 -120 -121 -122 -125 -126 0 
-29 27 61 62 108 109 119 -117 -118 -120 -121 -122 -125 -126 0 
-30 1 2 3 4 31 33 37 78 84 106 119 -117 -118 -120 -121 -122 -125 -126 0 
-31 1 2 3 4 30 33 37 78 84 106 120 -117 -118 -119 -121 -122 -125 -126 0 
-32 120 -117 -118 -119 -121 -122 -125 -126 0 
-11 13 17 66 104 -33 1 2 3 4 30 31 37 78 84 106 120 -117 -118 -119 -121 -122 -125 -126 0 
-11 13 17 66 104 -34 6 40 49 59 68 70 101 107 120 -117 -118 -119 -121 -122 -125 -126 0 
-35 121 -117 -118 -119 -120 -122 -125 -126 0 
-36 5 71 -6 34 40 49 59 68 70 101 107 118 -117 -119 -120 -121 -122 -125 -126 0 
-37 1 2 3 4 30 31 33 78 84 106 120 -117 -118 -119 -121 -122 -125 -126 0 
-38 22 44 81 99 -39 10 14 24 26 42 43 45 56 83 86 89 93 120 -117 -118 -119 -121 -122 -125 -126 0 
-40 6 34 49 59 68 70 101 107 118 -117 -119 -120 -121 -122 -125 -126 0 
-41 8 23 80 -42 10 14 24 26 39 43 45 56 83 86 89 93 122 -117 -118 -119 -120 -121 -125 -126 0 
-43 10 14 24 26 39 42 45 56 83 86 89 93 122 -117 -118 -119 -120 -121 -125 -126 0 
-44 22 38 81 99 -1 2 3 4 30 31 33 37 78 84 106 122 -117 -118 -119 -120 -121 -125 -126 0 
-45 10 14 24 26 39 42 43 56 83 86 89 93 121 -117 -118 -119 -120 -122 -125 -126 0 
-46 16 67 121 -117 -118 -119 -120 -122 -125 -126 0 
-47 123 -117 -118 -119 -120 -121 -122 -125 -126 0 
-47 124 -117 -118 -119 -120 -121 -122 -125 -126 0 
-48 119 -117 -118 -120 -121 -122 -125 -126 0 
-49 6 34 40 59 68 70 101 107 119 -117 -118 -120 -121 -122 -125 -126 0 
-44 22 38 81 99 -43 10 14 24 26 39 42 45 56 83 86 89 93 122 -117 -118 -119 -120 -121 -125 -126 0 
-7 55 64 73 87 88 -8 23 41 80 -50 119 -117 -118 -120 -121 -122 -125 -126 0 
-51 125 -117 -118 -119 -120 -121 -122 -126 0 
-10 14 24 26 39 42 43 45 56 83 86 89 93 -52 119 -117 -118 -120 -121 -122 -125 -126 0 
-7 55 64 73 87 88 -10 14 24 26 39 42 43 45 56 83 86 89 93 -50 -51 119 -117 -118 -120 -121 -122 -125 -126 0 
-53 15 119 -117 -118 -120 -121 -122 -125 -126 0 
-54 119 -117 -118 -120 -121 -122 -125 -126 0 
-55 7 64 73 87 88 119 -117 -118 -120 -121 -122 -125 -126 0 
-56 10 14 24 26 39 42 43 45 83 86 89 93 -57 119 -117 -118 -120 -121 -122 -125 -126 0 
-58 77 -57 119 -117 -118 -120 -121 -122 -125 -126 0 
-59 6 34 40 49 68 70 101 107 -57 119 -117 -118 -120 -121 -122 -125 -126 0 
-60 76 96 105 119 -117 -118 -120 -121 -122 -125 -126 0 
-61 27 29 62 108 109 119 -117 -118 -120 -121 -122 -125 -126 0 
-62 27 29 61 108 109 119 -117 -118 -120 -121 -122 -125 -126 0 
-63 18 19 112 119 -117 -118 -120 -121 -122 -125 -126 0 
-64 7 55 73 87 88 119 -117 -118 -120 -121 -122 -125 -126 0 
-65 121 -117 -118 -119 -120 -122 -125 -126 0 
-66 11 13 17 104 119 -117 -118 -120 -121 -122 -125 -126 0 
-67 16 46 119 -117 -118 -120 -121 -122 -125 -126 0 
-68 6 34 40 49 59 70 101 107 119 -117 -118 -120 -121 -122 -125 -126 0 
-14 10 24 26 39 42 43 45 56 83 86 89 93 -51 119 -117 -118 -120 -121 -122 -125 -126 0 
-69 -9 119 -117 -118 -120 -121 -122 -125 -126 0 
-70 6 34 40 49 59 68 101 107 -9 119 -117 -118 -120 -121 -122 -125 -126 0 
-10 14 24 26 39 42 43 45 56 83 86 89 93 -9 119 -117 -118 -120 -121 -122 -125 -126 0 
-71 5 36 -9 119 -117 -118 -120 -121 -122 -125 -126 0 
-62 27 29 61 108 109 119 -117 -118 -120 -121 -122 -125 -126 0 
-72 79 119 -117 -118 -120 -121 -122 -125 -126 0 
-7 55 64 73 87 88 -10 14 24 26 39 42 43 45 56 83 86 89 93 -9 119 -117 -118 -120 -121 -122 -125 -126 0 
-73 7 55 64 87 88 -74 -57 119 -117 -118 -120 -121 -122 -125 -126 0 
-17 11 13 66 104 -75 -57 119 -117 -118 -120 -121 -122 -125 -126 0 
-76 60 96 105 -77 58 -57 119 -117 -118 -120 -121 -122 -125 -126 0 
-73 7 55 64 87 88 -78 1 2 3 4 30 31 33 37 84 106 -57 119 -117 -118 -120 -121 -122 -125 -126 0 
-7 55 64 73 87 88 -79 72 119 -117 -118 -120 -121 -122 -125 -126 0 
-80 8 23 41 -57 119 -117 -118 -120 -121 -122 -125 -126 0 
-81 22 38 44 99 121 -117 -118 -119 -120 -122 -125 -126 0 
-10 14 24 26 39 42 43 45 56 83 86 89 93 -8 23 41 80 -50 119 -117 -118 -120 -121 -122 -125 -126 0 
-69 -82 119 -117 -118 -120 -121 -122 -125 -126 0 
-70 6 34 40 49 59 68 101 107 -82 119 -117 -118 -120 -121 -122 -125 -126 0 
-62 27 29 61 108 109 119 -117 -118 -120 -121 -122 -125 -126 0 
-71 5 36 -50 119 -117 -118 -120 -121 -122 -125 -126 0 
-72 79 119 -117 -118 -120 -121 -122 -125 -126 0 
-83 10 14 24 26 39 42 43 45 56 86 89 93 120 -117 -118 -119 -121 -122 -125 -126 0 
-84 1 2 3 4 30 31 33 37 78 106 -85 117 -118 -119 -120 -121 -122 -125 -126 0 
-86 10 14 24 26 39 42 43 45 56 83 89 93 120 -117 -118 -119 -121 -122 -125 -126 0 
-87 7 55 64 73 88 -10 14 24 26 39 42 43 45 56 83 86 89 93 120 -117 -118 -119 -121 -122 -125 -126 0 
-88 7 55 64 73 87 -89 10 14 24 26 39 42 43 45 56 83 86 93 126 -117 -118 -119 -120 -121 -122 -125 0 
-47 127 -117 -118 -119 -120 -121 -122 -125 -126 -18 -19 -63 -112 0 
-83 10 14 24 26 39 42 43 45 56 86 89 93 -90 113 128 -117 -118 -119 -120 -121 -122 -125 -126 0 
-91 -92 -93 10 14 24 26 39 42 43 45 56 83 86 89 -94 128 -117 -118 -119 -120 -121 -122 -125 -126 0 
-83 10 14 24 26 39 42 43 45 56 86 89 93 -90 113 129 -117 -118 -119 -120 -121 -122 -125 -126 0 
-57 129 -117 -118 -119 -120 -121 -122 -125 -126 0 
-47 130 -117 -118 -119 -120 -121 -122 -125 -126 0 
-95 102 -96 60 76 105 131 -117 -118 -119 -120 -121 -122 -125 -126 0 
-97 120 -117 -118 -119 -121 -122 -125 -126 0 
-95 102 131 -117 -118 -119 -120 -121 -122 -125 -126 0 
-47 128 -117 -118 -119 -120 -121 -122 -125 -126 0 
-98 103 132 -117 -118 -119 -120 -121 -122 -125 -126 -16 -46 -67 0 
-99 22 38 44 81 127 -117 -118 -119 -120 -121 -122 -125 -126 -18 -19 -63 -112 0 
-43 10 14 24 26 39 42 45 56 83 86 89 93 -100 119 -117 -118 -120 -121 -122 -125 -126 0 
-73 7 55 64 87 88 -59 6 34 40 49 68 70 101 107 -57 119 -117 -118 -120 -121 -122 -125 -126 0 
-57 121 -117 -118 -119 -120 -122 -125 -126 0 
-74 -57 119 -117 -118 -120 -121 -122 -125 -126 0 
-101 6 34 40 49 59 68 70 107 119 -117 -118 -120 -121 -122 -125 -126 0 
-102 95 121 -117 -118 -119 -120 -122 -125 -126 0 
-103 98 121 -117 -118 -119 -120 -122 -125 -126 0 
-104 11 13 17 66 121 -117 -118 -119 -120 -122 -125 -126 0 
-105 60 76 96 -106 1 2 3 4 30 31 33 37 78 84 -107 6 34 40 49 59 68 70 101 118 -117 -119 -120 -121 -122 -125 -126 0 
-108 27 29 61 62 109 119 -117 -118 -120 -121 -122 -125 -126 0 
-109 27 29 61 62 108 119 -117 -118 -120 -121 -122 -125 -126 0 
-99 22 38 44 81 119 -117 -118 -120 -121 -122 -125 -126 0 
-110 119 -117 -118 -120 -121 -122 -125 -126 0 
-111 119 -117 -118 -120 -121 -122 -125 -126 0 
-112 18 19 63 132 -117 -118 -119 -120 -121 -122 -125 -126 -16 -46 -67 0 
-113 90 119 -117 -118 -120 -121 -122 -125 -126 0 
-112 18 19 63 133 -5 -36 -71 -117 -118 -119 -120 -121 -122 -125 -126 0 
-114 119 -117 -118 -120 -121 -122 -125 -126 0 
-57 119 -117 -118 -120 -121 -122 -125 -126 0 
-79 72 119 -117 -118 -120 -121 -122 -125 -126 0 
-115 -95 102 -57 119 -117 -118 -120 -121 -122 -125 -126 0 
-111 -116 119 -117 -118 -120 -121 -122 -125 -126 0 
-38 22 44 81 99 -12 119 -117 -118 -120 -121 -122 -125 -126 0 
